851
766
703
888
779
808
914
768
842
890
744
859
753
868
811
862
840
808
765
837
840
864
748
734
787
828
846
726
711
632
861
778
851
902
801
885
714
765
885
838
815
843
784
776
844
785
780
701
792
796
844
807
832
751
761
869
773
855
927
742
726
685
793
612
758
841
916
827
780
761
822
816
733
836
749
882
762
782
832
819
860
789
746
761
898
802
855
818
701
829
776
926
770
777
736
852
790
874
824
837
